param set_len = 34;
param target_sum = 11854772795;
param values := [1] 34258957 [2] 1055248014 [3] 819388807 [4] 931444982 [5] 714791406 [6] 407203421 [7] 154745235 [8] 481365586 [9] 407666064 [10] 672210752 [11] 22392975 [12] 800008507 [13] 997972481 [14] 926128576 [15] 835087456 [16] 1046741860 [17] 70530003 [18] 1013493428 [19] 815043699 [20] 31411255 [21] 885016185 [22] 566839095 [23] 771468724 [24] 952660473 [25] 798470813 [26] 951669491 [27] 1050776565 [28] 480372602 [29] 626403652 [30] 232969116 [31] 951797926 [32] 501454909 [33] 188237419 [34] 916243459 ;
